branch-and-cut/resultados/B/b10.sol
# Objective value = 86
e[0,6] 0
e[6,0] 0
e[0,26] 1
e[26,0] 1
e[0,50] 0
e[50,0] 0
e[1,7] 0
e[7,1] 0
e[1,23] 0
e[23,1] 0
e[1,25] 0
e[25,1] 0
e[4,50] 0
e[50,4] 0
e[4,68] 0
e[68,4] 0
e[6,60] 0
e[60,6] 0
e[6,65] 1
e[65,6] 1
e[6,70] 1
e[70,6] 1
e[7,39] 0
e[39,7] 0
e[8,40] 0
e[40,8] 0
e[9,34] 0
e[34,9] 0
e[9,38] 0
e[38,9] 0
e[11,14] 0
e[14,11] 0
e[11,16] 0
e[16,11] 0
e[11,38] 0
e[38,11] 0
e[11,39] 0
e[39,11] 0
e[11,67] 0
e[67,11] 0
e[11,69] 0
e[69,11] 0
e[13,20] 0
e[20,13] 0
e[13,32] 0
e[32,13] 0
e[15,50] 0
e[50,15] 0
e[16,7] 0
e[7,16] 0
e[16,49] 0
e[49,16] 0
e[17,4] 1
e[4,17] 1
e[17,5] 0
e[5,17] 0
e[17,12] 1
e[12,17] 1
e[17,41] 0
e[41,17] 0
e[20,59] 0
e[59,20] 0
e[21,39] 0
e[39,21] 0
e[21,71] 0
e[71,21] 0
e[22,7] 0
e[7,22] 0
e[22,26] 0
e[26,22] 0
e[22,44] 1
e[44,22] 1
e[22,45] 1
e[45,22] 1
e[22,47] 0
e[47,22] 0
e[22,72] 0
e[72,22] 0
e[23,61] 0
e[61,23] 0
e[23,64] 0
e[64,23] 0
e[23,68] 0
e[68,23] 0
e[25,3] 0
e[3,25] 0
e[25,22] 0
e[22,25] 0
e[25,60] 0
e[60,25] 0
e[26,23] 0
e[23,26] 0
e[26,74] 1
e[74,26] 1
e[28,22] 1
e[22,28] 1
e[28,29] 0
e[29,28] 0
e[28,38] 1
e[38,28] 1
e[29,9] 0
e[9,29] 0
e[29,10] 0
e[10,29] 0
e[29,73] 0
e[73,29] 0
e[30,8] 0
e[8,30] 0
e[30,36] 0
e[36,30] 0
e[31,13] 0
e[13,31] 0
e[31,42] 0
e[42,31] 0
e[32,37] 0
e[37,32] 0
e[33,8] 0
e[8,33] 0
e[33,15] 0
e[15,33] 0
e[33,35] 0
e[35,33] 0
e[33,44] 0
e[44,33] 0
e[33,45] 0
e[45,33] 0
e[33,66] 0
e[66,33] 0
e[34,44] 0
e[44,34] 0
e[34,58] 0
e[58,34] 0
e[34,64] 0
e[64,34] 0
e[35,25] 0
e[25,35] 0
e[36,9] 0
e[9,36] 0
e[37,8] 0
e[8,37] 0
e[38,18] 0
e[18,38] 0
e[38,24] 0
e[24,38] 0
e[40,31] 0
e[31,40] 0
e[41,33] 0
e[33,41] 0
e[42,8] 0
e[8,42] 0
e[42,49] 0
e[49,42] 0
e[43,26] 1
e[26,43] 1
e[43,50] 0
e[50,43] 0
e[44,32] 0
e[32,44] 0
e[44,35] 1
e[35,44] 1
e[44,58] 1
e[58,44] 1
e[44,70] 0
e[70,44] 0
e[45,2] 0
e[2,45] 0
e[45,8] 1
e[8,45] 1
e[45,27] 1
e[27,45] 1
e[45,30] 0
e[30,45] 0
e[45,54] 0
e[54,45] 0
e[45,63] 0
e[63,45] 0
e[46,67] 0
e[67,46] 0
e[47,1] 0
e[1,47] 0
e[47,33] 0
e[33,47] 0
e[47,48] 0
e[48,47] 0
e[47,53] 0
e[53,47] 0
e[48,13] 0
e[13,48] 0
e[48,57] 0
e[57,48] 0
e[49,19] 0
e[19,49] 0
e[52,34] 0
e[34,52] 0
e[52,41] 0
e[41,52] 0
e[52,54] 0
e[54,52] 0
e[55,0] 1
e[0,55] 1
e[55,10] 0
e[10,55] 0
e[55,51] 1
e[51,55] 1
e[56,62] 0
e[62,56] 0
e[56,63] 0
e[63,56] 0
e[57,1] 1
e[1,57] 1
e[57,22] 1
e[22,57] 1
e[57,54] 0
e[54,57] 0
e[58,15] 0
e[15,58] 0
e[59,24] 0
e[24,59] 0
e[59,41] 0
e[41,59] 0
e[59,63] 0
e[63,59] 0
e[59,70] 1
e[70,59] 1
e[60,74] 0
e[74,60] 0
e[61,21] 0
e[21,61] 0
e[61,31] 0
e[31,61] 0
e[63,15] 0
e[15,63] 0
e[63,28] 0
e[28,63] 0
e[63,30] 0
e[30,63] 0
e[64,47] 0
e[47,64] 0
e[64,55] 0
e[55,64] 0
e[65,17] 1
e[17,65] 1
e[65,53] 0
e[53,65] 0
e[65,58] 1
e[58,65] 1
e[66,28] 0
e[28,66] 0
e[66,31] 0
e[31,66] 0
e[66,71] 0
e[71,66] 0
e[66,74] 0
e[74,66] 0
e[68,19] 0
e[19,68] 0
e[68,40] 0
e[40,68] 0
e[69,5] 0
e[5,69] 0
e[70,18] 0
e[18,70] 0
e[70,19] 0
e[19,70] 0
e[70,39] 0
e[39,70] 0
e[70,49] 1
e[49,70] 1
e[71,59] 0
e[59,71] 0
e[72,10] 0
e[10,72] 0
e[72,11] 0
e[11,72] 0
e[72,17] 0
e[17,72] 0
e[72,21] 0
e[21,72] 0
e[72,25] 0
e[25,72] 0
e[72,34] 0
e[34,72] 0
e[72,37] 0
e[37,72] 0
e[72,43] 0
e[43,72] 0
e[72,52] 0
e[52,72] 0
e[73,0] 0
e[0,73] 0
e[74,2] 0
e[2,74] 0
e[74,6] 1
e[6,74] 1
e[74,32] 0
e[32,74] 0
e[74,46] 0
e[46,74] 0
e[74,56] 0
e[56,74] 0
