branch-and-cut/resultados/B/b10.log

Gurobi 10.0.3 (win64) logging started Sun Dec 17 19:59:06 2023

Set parameter LogFile to value "./resultados/log.log"
Set parameter TimeLimit to value 600
Gurobi Optimizer version 10.0.3 build v10.0.3rc0 (win64)

CPU model: AMD Ryzen 5 5600 6-Core Processor, instruction set [SSE2|AVX|AVX2]
Thread count: 6 physical cores, 12 logical processors, using up to 12 threads

Academic license 2433534 - for non-commercial use only - registered to gm___@gmail.com
Optimize a model with 388 rows, 300 columns and 4304 nonzeros
Model fingerprint: 0x5503a544
Variable types: 0 continuous, 300 integer (300 binary)
Coefficient statistics:
  Matrix range     [1e+00, 1e+01]
  Objective range  [5e-01, 5e+00]
  Bounds range     [1e+00, 1e+00]
  RHS range        [1e+00, 1e+00]
Found heuristic solution: objective 854.0000000
Presolve removed 378 rows and 153 columns
Presolve time: 0.00s
Presolved: 10 rows, 147 columns, 43 nonzeros
Variable types: 0 continuous, 147 integer (147 binary)
Root relaxation presolved: 21 rows, 147 columns, 115 nonzeros


Root relaxation: objective 5.600000e+01, 20 iterations, 0.00 seconds (0.00 work units)

    Nodes    |    Current Node    |     Objective Bounds      |     Work
 Expl Unexpl |  Obj  Depth IntInf | Incumbent    BestBd   Gap | It/Node Time

     0     0   56.00000    0    3  854.00000   56.00000  93.4%     -    0s
H    0     0                     159.0000000   59.16667  62.8%     -    0s
     0     0   59.16667    0   10  159.00000   59.16667  62.8%     -    0s
     0     0   62.00000    0    -  159.00000   62.00000  61.0%     -    0s
     0     0   63.00000    0    -  159.00000   63.00000  60.4%     -    0s
H    0     0                     138.0000000   64.25000  53.4%     -    0s
     0     0   64.25000    0   11  138.00000   64.25000  53.4%     -    0s
H    0     0                     111.0000000   67.50000  39.2%     -    0s
     0     0   67.50000    0    4  111.00000   67.50000  39.2%     -    0s
     0     0   70.00000    0    4  111.00000   70.00000  36.9%     -    0s
     0     0   71.77778    0   20  111.00000   71.77778  35.3%     -    0s
H    0     0                     110.0000000   73.50000  33.2%     -    0s
     0     0   73.50000    0    8  110.00000   73.50000  33.2%     -    0s
H    0     0                     108.0000000   74.25000  31.3%     -    0s
     0     0   74.25000    0   22  108.00000   74.25000  31.3%     -    0s
H    0     0                     102.0000000   76.00000  25.5%     -    0s
     0     0   76.00000    0   15  102.00000   76.00000  25.5%     -    0s
     0     0   76.89394    0   24  102.00000   76.89394  24.6%     -    0s
     0     0   77.53750    0   25  102.00000   77.53750  24.0%     -    0s
     0     0   78.39552    0   25  102.00000   78.39552  23.1%     -    0s
     0     0   78.70588    0   22  102.00000   78.70588  22.8%     -    0s
     0     0   79.18182    0   18  102.00000   79.18182  22.4%     -    0s
H    0     0                      97.0000000   79.41379  18.1%     -    0s
     0     0   79.41379    0   25   97.00000   79.41379  18.1%     -    0s
     0     0   79.87234    0   26   97.00000   79.87234  17.7%     -    0s
     0     0   80.00000    0    -   97.00000   80.00000  17.5%     -    0s
     0     0   80.32283    0   27   97.00000   80.32283  17.2%     -    0s
     0     0   81.00424    0   32   97.00000   81.00424  16.5%     -    0s
H    0     0                      95.0000000   81.11111  14.6%     -    0s
     0     0   81.11111    0   21   95.00000   81.11111  14.6%     -    0s
     0     0   81.24247    0   25   95.00000   81.24247  14.5%     -    0s
     0     0   81.27186    0   29   95.00000   81.27186  14.5%     -    0s
H    0     0                      93.0000000   81.27186  12.6%     -    0s
     0     2   81.39403    0   37   93.00000   81.39403  12.5%     -    1s
H    7    14                      90.0000000   81.67215  9.25%  15.0    1s
H   31    44                      89.0000000   82.71154  7.07%  28.7    1s
H   51    56                      87.0000000   83.34783  4.20%  24.6    2s
H  183   108                      86.0000000   84.66667  1.55%  23.1    4s

Cutting planes:
  User: 12
  Gomory: 1
  Flow cover: 4
  Lazy constraints: 811

Explored 203 nodes (4943 simplex iterations) in 4.66 seconds (0.36 work units)
Thread count was 12 (of 12 available processors)

Solution count 10: 86 87 89 ... 110

Optimal solution found (tolerance 1.00e-04)
Best objective 8.600000000000e+01, best bound 8.600000000000e+01, gap 0.0000%

User-callback calls 913, time in user-callback 4.27 sec
